p cnf 109 688
-22 -23 0
-22 -24 0
-22 -25 0
-23 -24 0
-23 -25 0
-24 -25 0
22 23 24 25 0
-26 -27 0
-26 -28 0
-26 -29 0
-26 -30 0
-26 -31 0
-26 -32 0
-27 -28 0
-27 -29 0
-27 -30 0
-27 -31 0
-27 -32 0
-28 -29 0
-28 -30 0
-28 -31 0
-28 -32 0
-29 -30 0
-29 -31 0
-29 -32 0
-30 -31 0
-30 -32 0
-31 -32 0
26 27 28 29 30 31 32 0
-33 -34 0
-33 -35 0
-33 -36 0
-33 -37 0
-33 -38 0
-33 -39 0
-34 -35 0
-34 -36 0
-34 -37 0
-34 -38 0
-34 -39 0
-35 -36 0
-35 -37 0
-35 -38 0
-35 -39 0
-36 -37 0
-36 -38 0
-36 -39 0
-37 -38 0
-37 -39 0
-38 -39 0
33 34 35 36 37 38 39 0
-26 -33 0
-27 -34 0
-28 -35 0
-22 -29 0
-22 -36 0
-29 -36 0
-23 -30 0
-23 -37 0
-30 -37 0
-24 -31 0
-24 -38 0
-31 -38 0
-25 -32 0
-25 -39 0
-32 -39 0
1 -26 -34 0
1 -33 -27 0
2 -26 -35 0
2 -33 -28 0
3 -26 -22 0
3 -26 -36 0
3 -33 -22 0
3 -33 -29 0
4 -26 -23 0
4 -26 -37 0
4 -33 -23 0
4 -33 -30 0
5 -26 -24 0
5 -26 -38 0
5 -33 -24 0
5 -33 -31 0
6 -26 -25 0
6 -26 -39 0
6 -33 -25 0
6 -33 -32 0
7 -27 -35 0
7 -34 -28 0
8 -27 -22 0
8 -27 -36 0
8 -34 -22 0
8 -34 -29 0
9 -27 -23 0
9 -27 -37 0
9 -34 -23 0
9 -34 -30 0
10 -27 -24 0
10 -27 -38 0
10 -34 -24 0
10 -34 -31 0
11 -27 -25 0
11 -27 -39 0
11 -34 -25 0
11 -34 -32 0
12 -28 -22 0
12 -28 -36 0
12 -35 -22 0
12 -35 -29 0
13 -28 -23 0
13 -28 -37 0
13 -35 -23 0
13 -35 -30 0
14 -28 -24 0
14 -28 -38 0
14 -35 -24 0
14 -35 -31 0
15 -28 -25 0
15 -28 -39 0
15 -35 -25 0
15 -35 -32 0
16 -22 -30 0
16 -22 -37 0
16 -29 -23 0
16 -29 -37 0
16 -36 -23 0
16 -36 -30 0
17 -22 -31 0
17 -22 -38 0
17 -29 -24 0
17 -29 -38 0
17 -36 -24 0
17 -36 -31 0
18 -22 -32 0
18 -22 -39 0
18 -29 -25 0
18 -29 -39 0
18 -36 -25 0
18 -36 -32 0
19 -23 -31 0
19 -23 -38 0
19 -30 -24 0
19 -30 -38 0
19 -37 -24 0
19 -37 -31 0
20 -23 -32 0
20 -23 -39 0
20 -30 -25 0
20 -30 -39 0
20 -37 -25 0
20 -37 -32 0
21 -24 -32 0
21 -24 -39 0
21 -31 -25 0
21 -31 -39 0
21 -38 -25 0
21 -38 -32 0
-40 -41 0
-40 -42 0
-40 -43 0
-40 -44 0
-40 -45 0
-40 -46 0
-40 -47 0
-40 -48 0
-40 -49 0
-41 -42 0
-41 -43 0
-41 -44 0
-41 -45 0
-41 -46 0
-41 -47 0
-41 -48 0
-41 -49 0
-42 -43 0
-42 -44 0
-42 -45 0
-42 -46 0
-42 -47 0
-42 -48 0
-42 -49 0
-43 -44 0
-43 -45 0
-43 -46 0
-43 -47 0
-43 -48 0
-43 -49 0
-44 -45 0
-44 -46 0
-44 -47 0
-44 -48 0
-44 -49 0
-45 -46 0
-45 -47 0
-45 -48 0
-45 -49 0
-46 -47 0
-46 -48 0
-46 -49 0
-47 -48 0
-47 -49 0
-48 -49 0
40 41 42 43 44 45 46 47 48 49 0
-50 -51 0
-50 -52 0
-50 -53 0
-50 -54 0
-50 -55 0
-50 -56 0
-50 -57 0
-50 -58 0
-50 -59 0
-51 -52 0
-51 -53 0
-51 -54 0
-51 -55 0
-51 -56 0
-51 -57 0
-51 -58 0
-51 -59 0
-52 -53 0
-52 -54 0
-52 -55 0
-52 -56 0
-52 -57 0
-52 -58 0
-52 -59 0
-53 -54 0
-53 -55 0
-53 -56 0
-53 -57 0
-53 -58 0
-53 -59 0
-54 -55 0
-54 -56 0
-54 -57 0
-54 -58 0
-54 -59 0
-55 -56 0
-55 -57 0
-55 -58 0
-55 -59 0
-56 -57 0
-56 -58 0
-56 -59 0
-57 -58 0
-57 -59 0
-58 -59 0
50 51 52 53 54 55 56 57 58 59 0
-60 -61 0
-60 -62 0
-60 -63 0
-60 -64 0
-60 -65 0
-60 -66 0
-60 -67 0
-60 -68 0
-60 -69 0
-61 -62 0
-61 -63 0
-61 -64 0
-61 -65 0
-61 -66 0
-61 -67 0
-61 -68 0
-61 -69 0
-62 -63 0
-62 -64 0
-62 -65 0
-62 -66 0
-62 -67 0
-62 -68 0
-62 -69 0
-63 -64 0
-63 -65 0
-63 -66 0
-63 -67 0
-63 -68 0
-63 -69 0
-64 -65 0
-64 -66 0
-64 -67 0
-64 -68 0
-64 -69 0
-65 -66 0
-65 -67 0
-65 -68 0
-65 -69 0
-66 -67 0
-66 -68 0
-66 -69 0
-67 -68 0
-67 -69 0
-68 -69 0
60 61 62 63 64 65 66 67 68 69 0
-70 -71 0
-70 -72 0
-70 -73 0
-70 -74 0
-70 -75 0
-70 -76 0
-70 -77 0
-70 -78 0
-70 -79 0
-71 -72 0
-71 -73 0
-71 -74 0
-71 -75 0
-71 -76 0
-71 -77 0
-71 -78 0
-71 -79 0
-72 -73 0
-72 -74 0
-72 -75 0
-72 -76 0
-72 -77 0
-72 -78 0
-72 -79 0
-73 -74 0
-73 -75 0
-73 -76 0
-73 -77 0
-73 -78 0
-73 -79 0
-74 -75 0
-74 -76 0
-74 -77 0
-74 -78 0
-74 -79 0
-75 -76 0
-75 -77 0
-75 -78 0
-75 -79 0
-76 -77 0
-76 -78 0
-76 -79 0
-77 -78 0
-77 -79 0
-78 -79 0
70 71 72 73 74 75 76 77 78 79 0
-80 -81 0
-80 -82 0
-80 -83 0
-80 -84 0
-80 -85 0
-80 -86 0
-80 -87 0
-80 -88 0
-80 -89 0
-81 -82 0
-81 -83 0
-81 -84 0
-81 -85 0
-81 -86 0
-81 -87 0
-81 -88 0
-81 -89 0
-82 -83 0
-82 -84 0
-82 -85 0
-82 -86 0
-82 -87 0
-82 -88 0
-82 -89 0
-83 -84 0
-83 -85 0
-83 -86 0
-83 -87 0
-83 -88 0
-83 -89 0
-84 -85 0
-84 -86 0
-84 -87 0
-84 -88 0
-84 -89 0
-85 -86 0
-85 -87 0
-85 -88 0
-85 -89 0
-86 -87 0
-86 -88 0
-86 -89 0
-87 -88 0
-87 -89 0
-88 -89 0
80 81 82 83 84 85 86 87 88 89 0
-90 -91 0
-90 -92 0
-90 -93 0
-90 -94 0
-90 -95 0
-90 -96 0
-90 -97 0
-90 -98 0
-90 -99 0
-91 -92 0
-91 -93 0
-91 -94 0
-91 -95 0
-91 -96 0
-91 -97 0
-91 -98 0
-91 -99 0
-92 -93 0
-92 -94 0
-92 -95 0
-92 -96 0
-92 -97 0
-92 -98 0
-92 -99 0
-93 -94 0
-93 -95 0
-93 -96 0
-93 -97 0
-93 -98 0
-93 -99 0
-94 -95 0
-94 -96 0
-94 -97 0
-94 -98 0
-94 -99 0
-95 -96 0
-95 -97 0
-95 -98 0
-95 -99 0
-96 -97 0
-96 -98 0
-96 -99 0
-97 -98 0
-97 -99 0
-98 -99 0
90 91 92 93 94 95 96 97 98 99 0
-100 -101 0
-100 -102 0
-100 -103 0
-100 -104 0
-100 -105 0
-100 -106 0
-100 -107 0
-100 -108 0
-100 -109 0
-101 -102 0
-101 -103 0
-101 -104 0
-101 -105 0
-101 -106 0
-101 -107 0
-101 -108 0
-101 -109 0
-102 -103 0
-102 -104 0
-102 -105 0
-102 -106 0
-102 -107 0
-102 -108 0
-102 -109 0
-103 -104 0
-103 -105 0
-103 -106 0
-103 -107 0
-103 -108 0
-103 -109 0
-104 -105 0
-104 -106 0
-104 -107 0
-104 -108 0
-104 -109 0
-105 -106 0
-105 -107 0
-105 -108 0
-105 -109 0
-106 -107 0
-106 -108 0
-106 -109 0
-107 -108 0
-107 -109 0
-108 -109 0
100 101 102 103 104 105 106 107 108 109 0
-1 -40 -50 0
-1 -41 -51 0
-1 -42 -52 0
-1 -43 -53 0
-1 -44 -54 0
-1 -45 -55 0
-1 -46 -56 0
-1 -47 -57 0
-1 -48 -58 0
-1 -49 -59 0
-2 -40 -60 0
-2 -41 -61 0
-2 -42 -62 0
-2 -43 -63 0
-2 -44 -64 0
-2 -45 -65 0
-2 -46 -66 0
-2 -47 -67 0
-2 -48 -68 0
-2 -49 -69 0
-3 -40 -70 0
-3 -41 -71 0
-3 -42 -72 0
-3 -43 -73 0
-3 -44 -74 0
-3 -45 -75 0
-3 -46 -76 0
-3 -47 -77 0
-3 -48 -78 0
-3 -49 -79 0
-4 -40 -80 0
-4 -41 -81 0
-4 -42 -82 0
-4 -43 -83 0
-4 -44 -84 0
-4 -45 -85 0
-4 -46 -86 0
-4 -47 -87 0
-4 -48 -88 0
-4 -49 -89 0
-5 -40 -90 0
-5 -41 -91 0
-5 -42 -92 0
-5 -43 -93 0
-5 -44 -94 0
-5 -45 -95 0
-5 -46 -96 0
-5 -47 -97 0
-5 -48 -98 0
-5 -49 -99 0
-6 -40 -100 0
-6 -41 -101 0
-6 -42 -102 0
-6 -43 -103 0
-6 -44 -104 0
-6 -45 -105 0
-6 -46 -106 0
-6 -47 -107 0
-6 -48 -108 0
-6 -49 -109 0
-7 -50 -60 0
-7 -51 -61 0
-7 -52 -62 0
-7 -53 -63 0
-7 -54 -64 0
-7 -55 -65 0
-7 -56 -66 0
-7 -57 -67 0
-7 -58 -68 0
-7 -59 -69 0
-8 -50 -70 0
-8 -51 -71 0
-8 -52 -72 0
-8 -53 -73 0
-8 -54 -74 0
-8 -55 -75 0
-8 -56 -76 0
-8 -57 -77 0
-8 -58 -78 0
-8 -59 -79 0
-9 -50 -80 0
-9 -51 -81 0
-9 -52 -82 0
-9 -53 -83 0
-9 -54 -84 0
-9 -55 -85 0
-9 -56 -86 0
-9 -57 -87 0
-9 -58 -88 0
-9 -59 -89 0
-10 -50 -90 0
-10 -51 -91 0
-10 -52 -92 0
-10 -53 -93 0
-10 -54 -94 0
-10 -55 -95 0
-10 -56 -96 0
-10 -57 -97 0
-10 -58 -98 0
-10 -59 -99 0
-11 -50 -100 0
-11 -51 -101 0
-11 -52 -102 0
-11 -53 -103 0
-11 -54 -104 0
-11 -55 -105 0
-11 -56 -106 0
-11 -57 -107 0
-11 -58 -108 0
-11 -59 -109 0
-12 -60 -70 0
-12 -61 -71 0
-12 -62 -72 0
-12 -63 -73 0
-12 -64 -74 0
-12 -65 -75 0
-12 -66 -76 0
-12 -67 -77 0
-12 -68 -78 0
-12 -69 -79 0
-13 -60 -80 0
-13 -61 -81 0
-13 -62 -82 0
-13 -63 -83 0
-13 -64 -84 0
-13 -65 -85 0
-13 -66 -86 0
-13 -67 -87 0
-13 -68 -88 0
-13 -69 -89 0
-14 -60 -90 0
-14 -61 -91 0
-14 -62 -92 0
-14 -63 -93 0
-14 -64 -94 0
-14 -65 -95 0
-14 -66 -96 0
-14 -67 -97 0
-14 -68 -98 0
-14 -69 -99 0
-15 -60 -100 0
-15 -61 -101 0
-15 -62 -102 0
-15 -63 -103 0
-15 -64 -104 0
-15 -65 -105 0
-15 -66 -106 0
-15 -67 -107 0
-15 -68 -108 0
-15 -69 -109 0
-16 -70 -80 0
-16 -71 -81 0
-16 -72 -82 0
-16 -73 -83 0
-16 -74 -84 0
-16 -75 -85 0
-16 -76 -86 0
-16 -77 -87 0
-16 -78 -88 0
-16 -79 -89 0
-17 -70 -90 0
-17 -71 -91 0
-17 -72 -92 0
-17 -73 -93 0
-17 -74 -94 0
-17 -75 -95 0
-17 -76 -96 0
-17 -77 -97 0
-17 -78 -98 0
-17 -79 -99 0
-18 -70 -100 0
-18 -71 -101 0
-18 -72 -102 0
-18 -73 -103 0
-18 -74 -104 0
-18 -75 -105 0
-18 -76 -106 0
-18 -77 -107 0
-18 -78 -108 0
-18 -79 -109 0
-19 -80 -90 0
-19 -81 -91 0
-19 -82 -92 0
-19 -83 -93 0
-19 -84 -94 0
-19 -85 -95 0
-19 -86 -96 0
-19 -87 -97 0
-19 -88 -98 0
-19 -89 -99 0
-20 -80 -100 0
-20 -81 -101 0
-20 -82 -102 0
-20 -83 -103 0
-20 -84 -104 0
-20 -85 -105 0
-20 -86 -106 0
-20 -87 -107 0
-20 -88 -108 0
-20 -89 -109 0
-21 -90 -100 0
-21 -91 -101 0
-21 -92 -102 0
-21 -93 -103 0
-21 -94 -104 0
-21 -95 -105 0
-21 -96 -106 0
-21 -97 -107 0
-21 -98 -108 0
-21 -99 -109 0
